0 514
496 450
992 378
1488 314
1984 280
2480 256
2976 240
3472 226
3968 214
4464 206
4960 198
5456 190
5952 184
6448 176
6944 174
7440 172
7936 168
8432 164
8928 162
30752 158
34224 156
60016 154
62992 152
